c CNF formula generated by generate_input.py
c Number of variables: 25
c Number of clauses: 25
c Clause length: random between 1 and 4
p cnf 25 25
13 11 21 0
25 0
4 0
-1 25 -20 -8 0
3 0
1 -5 -11 -22 0
-14 -13 -22 -10 0
-24 -14 -23 0
-15 0
16 0
-18 20 -17 9 0
-21 -23 0
-24 19 0
10 7 14 0
11 0
-24 -10 0
20 -15 -12 0
8 -23 22 0
15 -22 0
-9 -16 -14 0
-1 0
15 0
15 0
4 0
-7 -15 0
